1 -1 2 0
1 3 4 0
1 -5 -6 0
1 5 -7 0
1 -8 -9 0
1 8 10 0
1 -8 1 0
1 11 -1 0
1 12 13 0
1 14 -8 0
1 -15 16 0
1 -15 -7 0
1 17 15 0
1 6 18 0
1 6 -14 0
1 -19 -20 0
1 -21 16 0
1 22 23 0
1 -22 17 0
1 -20 -24 0
1 -20 -25 0
1 20 -19 0
1 -26 -27 0
1 4 3 0
1 -4 -28 0
1 29 30 0
1 -31 2 0
1 32 33 0
1 -32 -34 0
1 -30 35 0
1 -36 33 0
1 -36 -37 0
1 36 -35 0
1 -38 -37 0
1 -13 29 0
1 39 -34 0
1 40 -41 0
1 40 42 0
1 43 -44 0
1 35 -45 0
1 -35 -30 0
1 -41 -46 0
1 -46 -6 0
1 -46 21 0
1 -46 -47 0
1 46 -48 0
1 -46 8 0
1 46 -40 0
1 23 -6 0
1 49 -39 0
1 49 -48 0
1 -50 -13 0
1 50 51 0
1 -50 -52 0
1 48 49 0
1 48 13 0
1 48 52 0
1 53 -49 0
1 53 46 0
1 53 -23 0
1 -51 54 0
1 -55 10 0
1 56 50 0
1 56 57 0
1 56 58 0
1 -10 -56 0
1 -10 -58 0
1 -59 56 0
1 59 60 0
1 -61 -55 0
1 62 63 0
1 -62 -64 0
1 62 -65 0
1 27 -66 0
1 -60 -26 0
1 -67 66 0
1 67 -68 0
1 69 -10 0
1 -68 -70 0
1 -71 72 0
1 -71 58 0
1 -73 -74 0
1 73 -68 0
1 -70 -71 0
1 70 -75 0
1 76 -70 0
1 -25 77 0
1 25 67 0
1 25 78 0
1 -79 80 0
1 79 81 0
1 -74 -80 0
1 -74 78 0
1 -82 -83 0
1 -28 -84 0
1 85 -86 0
1 85 -87 0
1 -88 -83 0
1 86 89 0
1 -90 28 0
1 -90 91 0
1 92 87 0
1 -33 92 0
1 -93 -86 0
1 -93 -87 0
1 -93 -94 0
1 93 -95 0
1 93 96 0
1 93 -97 0
1 -98 13 0
1 98 -99 0
1 98 -100 0
1 98 -32 0
1 -98 101 0
1 97 47 0
1 97 -33 0
1 -87 101 0
1 102 -100 0
1 -102 103 0
1 -94 -47 0
1 94 104 0
1 -54 105 0
1 106 -45 0
1 107 108 0
1 107 52 0
1 109 54 0
1 -110 -105 0
1 -111 112 0
1 111 67 0
1 111 65 0
1 -111 -62 0
1 113 -65 0
1 -114 -63 0
1 114 -113 0
1 114 -115 0
1 114 65 0
1 -116 43 0
1 -116 117 0
1 -116 118 0
1 -63 114 0
1 -64 -59 0
1 -64 -66 0
1 75 -119 0
1 -75 66 0
1 120 -119 0
1 72 121 0
1 -122 123 0
1 -124 -120 0
1 -125 122 0
1 -119 80 0
1 119 -126 0
1 -127 -25 0
1 -128 129 0
1 -130 -131 0
1 132 -80 0
1 -132 -78 0
1 -132 -133 0
1 134 66 0
1 -134 128 0
1 135 -77 0
1 77 -136 0
1 137 138 0
1 137 128 0
1 -138 -139 0
1 -140 141 0
1 -140 142 0
1 84 143 0
1 84 -144 0
1 84 140 0
1 -145 146 0
1 142 147 0
1 -142 96 0
1 96 -148 0
1 -96 149 0
1 -96 150 0
1 -151 -152 0
1 -151 153 0
1 -153 -154 0
1 -155 -156 0
1 -152 -157 0
1 -158 159 0
1 -91 -95 0
1 -91 -155 0
1 -89 47 0
1 89 83 0
1 89 -153 0
1 89 -150 0
1 89 95 0
1 -156 160 0
1 -160 -87 0
1 -160 -153 0
1 160 161 0
1 -160 155 0
1 -150 -160 0
1 150 162 0
1 150 -104 0
1 149 163 0
1 149 -156 0
1 -161 151 0
1 -161 91 0
1 148 96 0
1 -104 -149 0
1 -104 97 0
1 -164 -165 0
1 -166 167 0
1 -166 -103 0
1 168 104 0
1 168 -169 0
1 170 86 0
1 -171 -160 0
1 -171 156 0
1 172 -168 0
1 169 167 0
1 -169 173 0
1 -169 174 0
1 175 109 0
1 175 -176 0
1 175 173 0
1 -177 -110 0
1 -174 -172 0
1 -174 -166 0
1 -167 -177 0
1 -178 -179 0
1 180 109 0
1 181 -75 0
1 181 108 0
1 182 183 0
1 -182 -181 0
1 -182 176 0
1 182 -108 0
1 -182 -118 0
1 183 177 0
1 -176 121 0
1 -184 -185 0
1 121 113 0
1 -186 -122 0
1 186 108 0
1 187 -188 0
1 -187 -189 0
1 187 190 0
1 191 -108 0
1 192 -187 0
1 192 -181 0
1 192 129 0
1 -108 193 0
1 -108 -191 0
1 -108 194 0
1 189 -187 0
1 193 195 0
1 -193 126 0
1 -193 190 0
1 -126 195 0
1 -126 108 0
1 -129 196 0
1 -197 130 0
1 -197 -108 0
1 -197 198 0
1 -199 -115 0
1 199 200 0
1 -115 193 0
1 115 126 0
1 115 -201 0
1 -190 126 0
1 -202 203 0
1 202 204 0
1 202 205 0
1 -202 -198 0
1 202 196 0
1 -200 -206 0
1 -207 208 0
1 207 -133 0
1 -209 -210 0
1 209 -211 0
1 198 -202 0
1 -212 -213 0
1 212 -214 0
1 212 129 0
1 -215 211 0
1 216 -208 0
1 217 -218 0
1 -208 -219 0
1 -208 -220 0
1 -208 -216 0
1 -221 -208 0
1 -211 222 0
1 -211 223 0
1 210 -224 0
1 225 208 0
1 225 226 0
1 227 228 0
1 -229 -230 0
1 229 -231 0
1 232 220 0
1 232 -225 0
1 -232 -134 0
1 218 -233 0
1 218 234 0
1 235 236 0
1 236 237 0
1 237 235 0
1 -226 -238 0
1 -226 239 0
1 240 -238 0
1 240 235 0
1 241 -242 0
1 241 243 0
1 -241 244 0
1 245 143 0
1 -245 -246 0
1 247 -248 0
1 -247 249 0
1 -250 248 0
1 250 251 0
1 250 143 0
1 242 -241 0
1 -252 244 0
1 -246 253 0
1 -246 147 0
1 -254 -255 0
1 157 -256 0
1 157 -257 0
1 157 -143 0
1 157 144 0
1 -157 -158 0
1 -147 -152 0
1 147 258 0
1 159 259 0
1 -257 -251 0
1 -257 242 0
1 256 260 0
1 258 147 0
1 -258 -242 0
1 -258 -261 0
1 262 251 0
1 262 263 0
1 -264 -165 0
1 265 266 0
1 259 -142 0
1 -259 -267 0
1 268 -269 0
1 268 -261 0
1 -263 -270 0
1 -263 -146 0
1 -263 261 0
1 -162 -172 0
1 266 -271 0
1 266 -150 0
1 -272 -273 0
1 272 265 0
1 274 275 0
1 -276 -266 0
1 -271 -277 0
1 -271 155 0
1 278 279 0
1 278 274 0
1 -280 281 0
1 282 173 0
1 283 -284 0
1 -283 -276 0
1 -285 -284 0
1 -286 -271 0
1 286 -287 0
1 -288 -272 0
1 288 289 0
1 -290 -285 0
1 -290 -274 0
1 -291 -292 0
1 273 -285 0
1 273 -282 0
1 -273 -274 0
1 -185 293 0
1 -294 186 0
1 295 -290 0
1 295 296 0
1 -297 290 0
1 -297 -298 0
1 299 294 0
1 -300 301 0
1 -302 303 0
1 304 -305 0
1 -304 184 0
1 304 306 0
1 -307 -305 0
1 -307 308 0
1 -308 -309 0
1 308 188 0
1 -308 189 0
1 308 299 0
1 306 -310 0
1 303 308 0
1 -303 -306 0
1 305 -311 0
1 206 -309 0
1 206 -192 0
1 -206 -312 0
1 -313 -309 0
1 313 -314 0
1 -313 -315 0
1 -313 -194 0
1 316 -317 0
1 -316 -194 0
1 -316 -190 0
1 318 -319 0
1 -318 -320 0
1 -319 206 0
1 319 321 0
1 201 -309 0
1 213 -309 0
1 -322 -204 0
1 314 323 0
1 -314 -201 0
1 324 188 0
1 324 -325 0
1 -223 224 0
1 223 205 0
1 -223 -321 0
1 224 -326 0
1 -323 327 0
1 328 223 0
1 328 -329 0
1 330 331 0
1 -330 -332 0
1 326 224 0
1 -326 -333 0
1 326 -322 0
1 -326 -334 0
1 -335 -336 0
1 335 -223 0
1 331 -330 0
1 -219 337 0
1 219 214 0
1 -219 235 0
1 338 -339 0
1 -329 -340 0
1 -341 342 0
1 341 -332 0
1 327 -332 0
1 343 -332 0
1 -343 -344 0
1 -214 332 0
1 -214 334 0
1 345 226 0
1 -239 240 0
1 -346 -347 0
1 222 348 0
1 -349 -345 0
1 349 338 0
1 -349 344 0
1 349 350 0
1 351 240 0
1 352 240 0
1 -353 354 0
1 355 345 0
1 355 232 0
1 -356 345 0
1 -357 358 0
1 357 359 0
1 -360 -354 0
1 359 353 0
1 -361 362 0
1 -363 -364 0
1 253 -255 0
1 253 254 0
1 -365 -366 0
1 365 363 0
1 -367 368 0
1 367 369 0
1 -367 -370 0
1 -261 251 0
1 -261 -257 0
1 269 364 0
1 -269 -371 0
1 -269 372 0
1 269 -274 0
1 371 -373 0
1 370 366 0
1 270 259 0
1 -267 -368 0
1 267 -374 0
1 -267 -268 0
1 -287 -279 0
1 287 -375 0
1 287 -372 0
1 287 280 0
1 -374 -376 0
1 -374 -292 0
1 372 258 0
1 -277 377 0
1 -292 -273 0
1 296 378 0
1 296 -374 0
1 296 379 0
1 296 -298 0
1 -298 380 0
1 298 -381 0
1 298 382 0
1 382 -383 0
1 -382 -259 0
1 -380 298 0
1 -384 -302 0
1 384 -289 0
1 -384 -382 0
1 289 273 0
1 -289 -385 0
1 289 288 0
1 -383 -381 0
1 383 386 0
1 383 -281 0
1 387 -383 0
1 -387 -377 0
1 -379 276 0
1 381 -388 0
1 -381 298 0
1 281 -296 0
1 281 389 0
1 390 305 0
1 301 391 0
1 301 -305 0
1 -301 -379 0
1 -301 392 0
1 -301 293 0
1 -393 -379 0
1 -317 391 0
1 -317 316 0
1 386 -394 0
1 -386 -393 0
1 -391 -394 0
1 -391 -387 0
1 -392 -395 0
1 392 -291 0
1 395 -396 0
1 395 397 0
1 395 393 0
1 -320 -398 0
1 -320 399 0
1 310 391 0
1 310 -400 0
1 401 402 0
1 -394 318 0
1 403 394 0
1 -398 -397 0
1 -400 394 0
1 -400 -398 0
1 321 404 0
1 404 -405 0
1 -404 312 0
1 -406 407 0
1 408 -409 0
1 -408 -410 0
1 410 339 0
1 411 404 0
1 411 394 0
1 412 -406 0
1 -412 311 0
1 -402 -408 0
1 -402 -401 0
1 -336 -326 0
1 336 335 0
1 -337 413 0
1 339 410 0
1 -414 -415 0
1 414 416 0
1 -414 417 0
1 -418 -419 0
1 420 -421 0
1 -420 -406 0
1 -422 339 0
1 -422 423 0
1 -422 -414 0
1 424 238 0
1 424 214 0
1 -334 -214 0
1 -425 325 0
1 415 348 0
1 415 426 0
1 415 -425 0
1 417 -334 0
1 325 -416 0
1 -325 -427 0
1 -416 425 0
1 -344 -428 0
1 348 -349 0
1 429 -333 0
1 333 326 0
1 430 -431 0
1 -430 -335 0
1 347 432 0
1 433 -349 0
1 -433 -434 0
1 435 -342 0
1 -432 -436 0
1 -437 432 0
1 438 375 0
1 -439 378 0
1 -439 440 0
1 -439 298 0
1 441 -442 0
1 443 438 0
1 444 445 0
1 -385 289 0
1 -446 447 0
1 -446 -448 0
1 442 449 0
1 442 450 0
1 -447 -451 0
1 -450 -451 0
1 -450 375 0
1 -452 453 0
1 440 446 0
1 454 -382 0
1 455 -281 0
1 -456 457 0
1 449 -458 0
1 459 -446 0
1 -459 -458 0
1 -459 456 0
1 -448 -456 0
1 -399 -458 0
1 -399 -460 0
1 399 -461 0
1 -399 281 0
1 -462 461 0
1 -463 395 0
1 -463 461 0
1 461 456 0
1 460 456 0
1 -460 -399 0
1 464 -465 0
1 -464 -466 0
1 -464 399 0
1 397 391 0
1 -397 467 0
1 -397 321 0
1 468 -457 0
1 -467 397 0
1 469 -470 0
1 -388 471 0
1 -388 472 0
1 -388 -397 0
1 -473 402 0
1 -413 -402 0
1 -474 -475 0
1 -474 476 0
1 -474 -477 0
1 -478 -479 0
1 -478 477 0
1 -479 473 0
1 479 -480 0
1 479 423 0
1 -475 -479 0
1 -481 -482 0
1 -396 478 0
1 396 -395 0
1 396 -482 0
1 396 483 0
1 421 -482 0
1 -484 -485 0
1 484 -486 0
1 423 -425 0
1 -477 -421 0
1 476 421 0
1 -476 -477 0
1 419 -487 0
1 427 -488 0
1 427 -487 0
1 489 -348 0
1 490 -491 0
1 492 490 0
1 -491 411 0
1 -491 423 0
1 487 -427 0
1 -493 491 0
1 434 494 0
1 431 -436 0
1 -431 -333 0
1 431 495 0
1 495 -492 0
1 -496 -431 0
1 496 -489 0
1 -497 -495 0
1 -498 -499 0
1 -500 498 0
1 -501 502 0
1 -501 503 0
1 -501 504 0
1 466 -499 0
1 -466 501 0
1 -502 -505 0
1 -506 503 0
1 -506 507 0
1 -506 498 0
1 508 -509 0
1 -508 -510 0
1 505 511 0
1 505 -512 0
1 513 -514 0
1 483 -510 0
1 -515 516 0
1 -515 517 0
1 516 -481 0
1 -518 -515 0
1 -518 519 0
1 520 -518 0
1 520 521 0
1 522 -523 0
1 -522 -524 0
1 522 -517 0
1 -525 470 0
1 -525 -419 0
1 525 524 0
1 -526 -396 0
1 527 -480 0
1 -527 -528 0
1 -519 -476 0
1 519 -528 0
1 519 -480 0
1 -529 525 0
1 -470 529 0
1 530 515 0
1 531 -525 0
1 -532 533 0
1 -532 477 0
1 534 528 0
1 535 -470 0
1 480 519 0
1 -536 535 0
1 528 527 0
1 -533 -519 0
1 -537 -538 0
1 514 539 0
1 540 -541 0
1 540 -514 0
1 542 -543 0
1 542 -537 0
1 -544 543 0
1 545 514 0
1 546 -514 0
1 -524 544 0
1 512 547 0
1 512 510 0
1 512 513 0
1 -543 544 0
1 543 548 0
1 -549 542 0
1 549 -550 0
1 541 -551 0
1 552 524 0
1 -552 -538 0
1 -523 532 0
1 -523 552 0
1 -523 -518 0
1 553 -523 0
1 554 -555 0
1 555 549 0
1 548 -549 0
1 -550 -551 0
